p cnf 20 266
-1 -11 0
-1 -12 0
-2 -11 0
-2 -12 0
-1 -21 0
-1 -22 0
-2 -21 0
-2 -22 0
-1 -31 0
-1 -32 0
-2 -31 0
-2 -32 0
-1 -41 0
-1 -42 0
-2 -41 0
-2 -42 0
-1 -51 0
-1 -52 0
-2 -51 0
-2 -52 0
-1 -61 0
-1 -62 0
-2 -61 0
-2 -62 0
-1 -81 0
-1 -82 0
-2 -81 0
-2 -82 0
-1 -91 0
-1 -92 0
-2 -91 0
-2 -92 0
-11 -21 0
-11 -22 0
-12 -21 0
-12 -22 0
-11 -31 0
-11 -32 0
-12 -31 0
-12 -32 0
-11 -41 0
-11 -42 0
-12 -41 0
-12 -42 0
-11 -51 0
-11 -52 0
-12 -51 0
-12 -52 0
-11 -61 0
-11 -62 0
-12 -61 0
-12 -62 0
-11 -71 0
-11 -72 0
-12 -71 0
-12 -72 0
-11 -81 0
-11 -82 0
-12 -81 0
-12 -82 0
-11 -91 0
-11 -92 0
-12 -91 0
-12 -92 0
-21 -31 0
-21 -32 0
-22 -31 0
-22 -32 0
-21 -41 0
-21 -42 0
-22 -41 0
-22 -42 0
-21 -51 0
-21 -52 0
-22 -51 0
-22 -52 0
-21 -61 0
-21 -62 0
-22 -61 0
-22 -62 0
-21 -71 0
-21 -72 0
-22 -71 0
-22 -72 0
-21 -91 0
-21 -92 0
-22 -91 0
-22 -92 0
-31 -41 0
-31 -42 0
-32 -41 0
-32 -42 0
-31 -51 0
-31 -52 0
-32 -51 0
-32 -52 0
-31 -61 0
-31 -62 0
-32 -61 0
-32 -62 0
-31 -71 0
-31 -72 0
-32 -71 0
-32 -72 0
-31 -81 0
-31 -82 0
-32 -81 0
-32 -82 0
-31 -91 0
-31 -92 0
-32 -91 0
-32 -92 0
-41 -51 0
-41 -52 0
-42 -51 0
-42 -52 0
-41 -61 0
-41 -62 0
-42 -61 0
-42 -62 0
-41 -71 0
-41 -72 0
-42 -71 0
-42 -72 0
-41 -91 0
-41 -92 0
-42 -91 0
-42 -92 0
-51 -61 0
-51 -62 0
-52 -61 0
-52 -62 0
-51 -71 0
-51 -72 0
-52 -71 0
-52 -72 0
-51 -91 0
-51 -92 0
-52 -91 0
-52 -92 0
-61 -71 0
-61 -72 0
-62 -71 0
-62 -72 0
-61 -81 0
-61 -82 0
-62 -81 0
-62 -82 0
-61 -91 0
-61 -92 0
-62 -91 0
-62 -92 0
-71 -81 0
-71 -82 0
-72 -81 0
-72 -82 0
-71 -91 0
-71 -92 0
-72 -91 0
-72 -92 0
-81 -91 0
-81 -92 0
-82 -91 0
-82 -92 0
-1 -11 0
-1 -21 0
-1 -31 0
-1 -41 0
-1 -51 0
-1 -61 0
-1 -71 0
-1 -81 0
-1 -91 0
-11 -21 0
-11 -31 0
-11 -41 0
-11 -51 0
-11 -61 0
-11 -71 0
-11 -81 0
-11 -91 0
-21 -31 0
-21 -41 0
-21 -51 0
-21 -61 0
-21 -71 0
-21 -81 0
-21 -91 0
-31 -41 0
-31 -51 0
-31 -61 0
-31 -71 0
-31 -81 0
-31 -91 0
-41 -51 0
-41 -61 0
-41 -71 0
-41 -81 0
-41 -91 0
-51 -61 0
-51 -71 0
-51 -81 0
-51 -91 0
-61 -71 0
-61 -81 0
-61 -91 0
-71 -81 0
-71 -91 0
-81 -91 0
1 11 21 31 41 51 61 71 81 91 0
-2 -12 0
-2 -22 0
-2 -32 0
-2 -42 0
-2 -52 0
-2 -62 0
-2 -72 0
-2 -82 0
-2 -92 0
-12 -22 0
-12 -32 0
-12 -42 0
-12 -52 0
-12 -62 0
-12 -72 0
-12 -82 0
-12 -92 0
-22 -32 0
-22 -42 0
-22 -52 0
-22 -62 0
-22 -72 0
-22 -82 0
-22 -92 0
-32 -42 0
-32 -52 0
-32 -62 0
-32 -72 0
-32 -82 0
-32 -92 0
-42 -52 0
-42 -62 0
-42 -72 0
-42 -82 0
-42 -92 0
-52 -62 0
-52 -72 0
-52 -82 0
-52 -92 0
-62 -72 0
-62 -82 0
-62 -92 0
-72 -82 0
-72 -92 0
-82 -92 0
2 12 22 32 42 52 62 72 82 92 0
-1 -2 0
-11 -12 0
-21 -22 0
-31 -32 0
-41 -42 0
-51 -52 0
-61 -62 0
-71 -72 0
-81 -82 0
-91 -92 0
